Traveling Salesman Problem/TSP_generados/Aleatorio1621103934_18.tsp
NAME: Aleatorio1621103934_18.tsp
COMMENT: Randomly generated scenario
TYPE: TSP
DIMENSION: 18
EDGE_WEIGHT_TYPE: ATT
NODE_COORD_SECTION
1 40.19 46.38
2 32.7 11.3
3 9.78 24.45
4 44.37 31.45
5 20.37 12.46
6 34.52 28.64
7 34.69 27.39
8 31.59 25.03
9 16.93 11.86
10 34.55 40.71
11 28.17 13.15
12 38.17 10.33
13 27.85 35.04
14 35.14 15.82
15 43.0 9.82
16 35.09 42.31
17 29.5 46.27
18 9.83 49.26
