Traveling Salesman Problem/TSP_generados/Aleatorio1621103934_18.opt.tour
NAME: Aleatorio1621103934_18.opt.tour
COMMENT: Optimal solution for Aleatorio1621103934_18 (164.81731492951533)
TYPE: TOUR
DIMENSION: 18
TOUR_SECTION
1 4 6 7 8 14 15 12 2 11 5 9 3 18 17 13 10 16
-1
EOF
